645465181928.0
652963262113.0
718665999174.0
711250564995.0
695355659646.0
629284223452.0
680467768353.0
719937265673.0
710736951627.0
687918185090.0
699829765899.0
711871034815.0
653892316792.0
737551832313.0
705204017896.0
705204017896.0
748747081772.0
702400981124.0
730234687911.0
730234687911.0
716595112401.0
684814226006.0
625200870837.0
625200870837.0
661427666847.0
730534073850.0
670067434391.0
688472543256.0
688472543256.0
728568178431.0
